************************************************************************
file with basedata            : md329_.bas
initial value random generator: 1840311150
************************************************************************
projects                      :  1
jobs (incl. supersource/sink ):  22
horizon                       :  165
RESOURCES
  - renewable                 :  2   R
  - nonrenewable              :  2   N
  - doubly constrained        :  0   D
************************************************************************
PROJECT INFORMATION:
pronr.  #jobs rel.date duedate tardcost  MPM-Time
    1     20      0       23        8       23
************************************************************************
PRECEDENCE RELATIONS:
jobnr.    #modes  #successors   successors
   1        1          3           2   3   4
   2        3          3           6   8  10
   3        3          3           5   6   8
   4        3          3          10  18  21
   5        3          2          17  18
   6        3          1           7
   7        3          1           9
   8        3          2          11  12
   9        3          3          11  12  14
  10        3          2          13  14
  11        3          2          17  18
  12        3          3          13  15  16
  13        3          1          19
  14        3          2          15  19
  15        3          1          20
  16        3          2          20  21
  17        3          2          20  21
  18        3          1          19
  19        3          1          22
  20        3          1          22
  21        3          1          22
  22        1          0        
************************************************************************
REQUESTS/DURATIONS:
jobnr. mode duration  R 1  R 2  N 1  N 2
------------------------------------------------------------------------
  1      1     0       0    0    0    0
  2      1     3       1    0    0    8
         2     8       0    9   10    0
         3     9       0    2    8    0
  3      1     1       6    0    7    0
         2     5       3    0    0    8
         3     8       0    6    6    0
  4      1     9       0    7    0   10
         2    10       0    6    8    0
         3    10       6    0    9    0
  5      1     1       0    4    7    0
         2     8       0    4    0    3
         3    10       0    1    0    1
  6      1     4       7    0    4    0
         2     7       6    0    0    9
         3     7       0    4    2    0
  7      1     3       9    0    0    9
         2     6       9    0    4    0
         3     9       8    0    0    7
  8      1     6       5    0    6    0
         2     9       0    4    4    0
         3    10       0    4    0    8
  9      1     2       0    5    0    8
         2     3       0    4    0    8
         3     5       0    2    0    8
 10      1     2       8    0    0    5
         2     3       6    0    0    4
         3     7       2    0    0    3
 11      1     1       0    6    0    6
         2     6       0    4    8    0
         3     9       2    0    0    5
 12      1     3       6    0    2    0
         2     6       0    6    1    0
         3     9       0    3    0    4
 13      1     5       0    7    1    0
         2     5       6    0    0    5
         3     9       0    9    0    5
 14      1     1       0    9    0    5
         2     5       6    0    4    0
         3     7       3    0    0    3
 15      1     3       2    0    1    0
         2     7       2    0    0    5
         3     8       0    7    0    4
 16      1     3       0    6    8    0
         2     9       0    2    0    7
         3     9       7    0    0    6
 17      1     2       0    5    8    0
         2     5       4    0    4    0
         3     8       3    0    2    0
 18      1     2       0    3    7    0
         2     6       0    3    4    0
         3     6       7    0    0    7
 19      1     3       0   10    1    0
         2     7       0    9    0    6
         3    10       7    0    0    6
 20      1     2       5    0    0    9
         2     6       0    9    0    6
         3     9       4    0    0    5
 21      1     1       0    7    0    1
         2     4       8    0    0    1
         3     6       4    0    6    0
 22      1     0       0    0    0    0
************************************************************************
RESOURCEAVAILABILITIES:
  R 1  R 2  N 1  N 2
   11    7   48   70
************************************************************************
MAXIMAL LAGS:
from  to  type  delay
    1   22   ES      0
    1    2   ES      0
    2   22   ES      0
    1    3   ES      0
    3   22   ES      0
    1    4   ES      0
    4   22   ES      0
    1    5   ES      0
    5   22   ES      0
    1    6   ES      0
    6   22   ES      0
    1    7   ES      0
    7   22   ES      0
    1    8   ES      0
    8   22   ES      0
    1    9   ES      0
    9   22   ES      0
    1   10   ES      0
   10   22   ES      0
    1   11   ES      0
   11   22   ES      0
    1   12   ES      0
   12   22   ES      0
    1   13   ES      0
   13   22   ES      0
    1   14   ES      0
   14   22   ES      0
    1   15   ES      0
   15   22   ES      0
    1   16   ES      0
   16   22   ES      0
    1   17   ES      0
   17   22   ES      0
    1   18   ES      0
   18   22   ES      0
    1   19   ES      0
   19   22   ES      0
    1   20   ES      0
   20   22   ES      0
    1   21   ES      0
   21   22   ES      0
    1   22   ES      0
    2    6   SS     12
    2    6   SE      3
    2    6   ES      9
    2    6   EE      4
    2    8   SS      0
    2    8   SE      0
    2    8   ES      4
    2    8   EE      1
    2   10   SS      5
    2   10   SE      9
    2   10   ES      7
    2   10   EE      6
    3    5   SS      4
    3    5   SE     -3
    3    5   ES     -8
    3    5   EE    -12
    3    6   SS    -12
    3    6   SE     -5
    3    6   ES     -7
    3    6   EE      0
    3    8   SS     -2
    3    8   SE    -11
    3    8   ES      8
    3    8   EE     -5
    4   10   SS    -11
    4   10   SE     -2
    4   10   ES     -8
    4   10   EE     -4
    4   18   SS     -9
    4   18   SE     -9
    4   18   ES     -4
    4   18   EE     12
    4   21   SS     -7
    4   21   SE    -11
    4   21   ES     11
    4   21   EE      2
    5   17   SS      1
    5   17   SE     -1
    5   17   ES     -9
    5   17   EE     -5
    5   18   SS     -6
    5   18   SE     -2
    5   18   ES     -7
    5   18   EE      6
    6    7   SS     -3
    6    7   SE      7
    6    7   ES     -1
    6    7   EE      3
    7    9   SS      1
    7    9   SE    -11
    7    9   ES     -5
    7    9   EE     10
    8   11   SS      8
    8   11   SE     12
    8   11   ES      6
    8   11   EE      1
    8   12   SS     10
    8   12   SE    -10
    8   12   ES    -12
    8   12   EE      5
    9   11   SS     -4
    9   11   SE      8
    9   11   ES      9
    9   11   EE      6
    9   12   SS     -7
    9   12   SE     12
    9   12   ES     10
    9   12   EE      6
    9   14   SS      3
    9   14   SE    -11
    9   14   ES     -3
    9   14   EE     12
   10   13   SS     -2
   10   13   SE     -6
   10   13   ES      4
   10   13   EE      1
   10   14   SS      5
   10   14   SE      2
   14   10   SE      0
   10   14   ES      0
   10   14   EE    -10
   11   17   SS     -8
   11   17   SE     10
   11   17   ES     12
   11   17   EE      6
   11   18   SS      2
   11   18   SE      1
   11   18   ES      3
   11   18   EE      0
   12   13   SS     -8
   12   13   SE     -9
   12   13   ES      8
   12   13   EE     -6
   12   15   SS     -2
   12   15   SE     -3
   12   15   ES      8
   12   15   EE     -2
   12   16   SS      0
   12   16   SE     12
   12   16   ES    -10
   12   16   EE     -4
   13   19   SS     11
   13   19   SE     -5
   13   19   ES     -9
   13   19   EE     -1
   14   15   SS     11
   14   15   SE     -6
   14   15   ES      9
   14   15   EE      4
   14   19   SS      8
   14   19   SE     -6
   14   19   ES      9
   14   19   EE     -3
   15   20   SS      5
   15   20   SE      8
   15   20   ES      6
   15   20   EE      6
   16   20   SS     10
   16   20   SE     -1
   16   20   ES     -5
   16   20   EE    -10
   16   21   SS     -7
   16   21   SE    -11
   16   21   ES    -11
   16   21   EE      4
   17   20   SS     12
   17   20   SE     -2
   17   20   ES      6
   17   20   EE    -11
   17   21   SS     -3
   17   21   SE    -11
   17   21   ES     12
   17   21   EE    -12
   18   19   SS     -7
   18   19   SE     -4
   18   19   ES     -9
   18   19   EE      9
************************************************************************
